
--- Job BasketballTeam.gms Start 04/03/24 11:42:20 46.3.0 cc87b1db WEX-WEI x86 64bit/MS Windows
--- Applying:
    D:\Apps\Gams\gmsprmNT.txt
--- GAMS Parameters defined
    Input "D:\Biblioteca\Escritorio\Universidad\MOS\Lab 3\BasketballTeam.gms"
    PageSize 0
    ScrDir "D:\Biblioteca\Escritorio\Universidad\MOS\Lab 3\225a\"
    SysDir D:\Apps\Gams\
    LogOption 3
    ErrMsg 1
    ErrorLog 99
    IDE 1
    LstTitleLeftAligned 1
Licensee: GAMS Community License for Sebastian Murcia    G240125|0002AO-GEN
          Universidad de los Andes, Computer and Systems Engineering CL9328
          D:\Biblioteca\Documents\GAMS\gamslice.txt
          Sebastian Murcia, s.murciag@uniandes.edu.co                      
          Community license for demonstration and instructional purposes only
Processor information: 1 socket(s), 4 core(s), and 8 thread(s) available
GAMS 46.3.0   Copyright (C) 1987-2024 GAMS Development. All rights reserved
--- Starting compilation
--- BasketballTeam.gms(59) 3 Mb
--- Starting execution: elapsed 0:00:00.005
--- BasketballTeam.gms(55) 4 Mb
--- Generating MIP model model1
--- BasketballTeam.gms(56) 4 Mb
---   10 rows  8 columns  57 non-zeroes
---   7 discrete-columns
--- Range statistics (absolute non-zero finite values)
--- RHS       [min, max] : [ 1.000E+00, 5.000E+00] - Zero values observed as well
--- Bound     [min, max] : [ 1.000E+00, 1.000E+00] - Zero values observed as well
--- Matrix    [min, max] : [ 2.000E-01, 3.000E+00]
--- Executing CPLEX (Solvelink=2): elapsed 0:00:01.522

IBM ILOG CPLEX   46.3.0 cc87b1db Mar 19, 2024          WEI x86 64bit/MS Window

*** This solver runs with a community license. No commercial use.
--- GMO setup time: 0.00s
--- GMO memory 0.50 Mb (peak 0.50 Mb)
--- Dictionary memory 0.00 Mb
--- Cplex 22.1.1.0 link memory 0.00 Mb (peak 0.00 Mb)
--- Starting Cplex

Version identifier: 22.1.1.0 | 2022-11-27 | 9160aff4d
CPXPARAM_Advance                                 0
CPXPARAM_Simplex_Display                         2
CPXPARAM_MIP_Display                             4
CPXPARAM_MIP_Pool_Capacity                       0
CPXPARAM_MIP_Tolerances_AbsMIPGap                0
Generic callback                                 0x50
Tried aggregator 2 times.
MIP Presolve eliminated 8 rows and 7 columns.
MIP Presolve modified 29 coefficients.
Aggregator did 1 substitutions.
All rows and columns eliminated.
Presolve time = 0.00 sec. (0.04 ticks)

Root node processing (before b&c):
  Real time             =    0.00 sec. (0.04 ticks)
Parallel b&c, 8 threads:
  Real time             =    0.00 sec. (0.00 ticks)
  Sync time (average)   =    0.00 sec.
  Wait time (average)   =    0.00 sec.
                          ------------
Total (root+branch&cut) =    0.00 sec. (0.04 ticks)

--- MIP status (101): integer optimal solution.
--- Cplex Time: 0.00sec (det. 0.04 ticks)

--- Returning a primal only solution to GAMS (marginals all set to NA).
--- Fixing integer variables and solving final LP...

Version identifier: 22.1.1.0 | 2022-11-27 | 9160aff4d
CPXPARAM_Advance                                 2
CPXPARAM_Simplex_Display                         2
CPXPARAM_MIP_Display                             4
CPXPARAM_MIP_Pool_Capacity                       0
CPXPARAM_MIP_Tolerances_AbsMIPGap                0
Tried aggregator 1 time.
LP Presolve eliminated 9 rows and 8 columns.
All rows and columns eliminated.
Presolve time = 0.00 sec. (0.00 ticks)

--- Fixed MIP status (1): optimal.
--- Cplex Time: 0.00sec (det. 0.01 ticks)


Proven optimal solution
MIP Solution:           12.000000    (0 iterations, 0 nodes)
Final Solve:            12.000000    (0 iterations)

Best possible:          12.000000
Absolute gap:            0.000000
Relative gap:            0.000000

--- Reading solution for model model1
--- Executing after solve: elapsed 0:00:01.580
--- BasketballTeam.gms(59) 4 Mb
*** Status: Normal completion
--- Job BasketballTeam.gms Stop 04/03/24 11:42:22 elapsed 0:00:01.580
